p wcnf 124 149 150 
1 -83 1 0 
1 17 94 0 
1 -24 -50 0 
1 50 -87 0 
1 -106 -91 0 
1 -93 -69 0 
1 -12 -18 0 
1 90 81 0 
1 -44 -15 0 
1 107 38 0 
1 28 -43 0 
1 2 -101 0 
1 -114 65 0 
1 36 -77 0 
1 97 -95 0 
1 -54 33 0 
1 79 -39 0 
1 -25 -100 0 
1 -119 -70 0 
1 -28 71 0 
1 102 -57 0 
1 96 -34 0 
1 79 -59 0 
1 -94 -17 0 
1 113 -86 0 
1 -9 -6 0 
1 90 27 0 
1 6 -36 0 
1 -70 123 0 
1 34 75 0 
1 -77 -60 0 
1 -80 -1 0 
1 -55 64 0 
1 -80 123 0 
1 87 69 0 
1 43 -58 0 
1 90 48 0 
1 86 11 0 
1 -1 -10 0 
1 -75 -86 0 
1 -16 37 0 
1 73 -34 0 
1 -72 -77 0 
1 -85 -77 0 
1 -76 4 0 
1 -32 48 0 
1 -89 23 0 
1 69 92 0 
1 109 62 0 
1 -22 -53 0 
1 -72 54 0 
1 -123 -116 0 
1 -23 -59 0 
1 114 98 0 
1 114 109 0 
1 -54 23 0 
1 -26 -122 0 
1 -66 -40 0 
1 100 13 0 
1 115 -20 0 
1 -94 -44 0 
1 -108 14 0 
1 33 -34 0 
1 -2 50 0 
1 81 22 0 
1 49 -61 0 
1 -88 -110 0 
1 109 -86 0 
1 51 64 0 
1 -61 58 0 
1 -32 -85 0 
1 -84 -122 0 
1 -47 -15 0 
1 -110 32 0 
1 80 45 0 
1 101 -118 0 
1 -124 -65 0 
1 19 47 0 
1 76 -107 0 
1 -12 -63 0 
1 22 111 0 
1 -31 29 0 
1 51 -47 0 
1 -46 -20 0 
1 -22 -108 0 
1 -27 -77 0 
1 -116 105 0 
1 -22 -91 0 
1 -13 43 0 
1 111 -79 0 
1 -103 25 0 
1 -26 -61 0 
1 24 71 0 
1 90 87 0 
1 118 28 0 
1 -56 -114 0 
1 -47 27 0 
1 38 77 0 
1 -107 91 0 
1 -112 -108 0 
1 34 -32 0 
1 -5 103 0 
1 -89 -52 0 
1 -70 -94 0 
1 -5 -109 0 
1 -84 6 0 
1 -76 -100 0 
1 55 92 0 
1 -49 56 0 
1 101 -75 0 
1 -17 -97 0 
1 124 68 0 
1 62 80 0 
1 -71 -17 0 
1 75 -35 0 
1 111 42 0 
1 87 82 0 
1 106 47 0 
1 -58 -99 0 
1 31 44 0 
1 92 71 0 
1 73 -20 0 
1 83 109 0 
1 -15 -72 0 
1 98 -14 0 
1 75 -60 0 
1 -36 18 0 
1 -10 96 0 
1 -86 91 0 
1 69 111 0 
1 17 -4 0 
1 -104 -100 0 
1 61 49 0 
1 -117 21 0 
1 -8 19 0 
1 118 58 0 
1 31 66 0 
1 -103 -24 0 
1 -11 -9 0 
1 36 85 0 
1 -70 -102 0 
1 56 -54 0 
1 52 25 0 
1 48 -41 0 
1 121 -13 0 
1 -58 77 0 
1 124 -116 0 
1 -26 -10 0 
1 -106 59 0 
